p td 22 138
2 1
3 2
3 1
4 2
4 3
5 1
5 3
5 4
5 2
6 4
6 5
6 1
6 2
7 3
7 4
7 5
7 2
8 1
8 6
8 5
8 2
8 4
9 4
9 8
9 6
9 7
10 5
10 2
10 7
10 9
11 2
11 4
11 9
11 5
11 6
11 3
11 10
12 2
12 9
12 3
12 7
13 9
13 3
13 11
13 2
13 1
14 11
14 6
14 1
14 8
14 5
14 9
14 12
14 2
14 7
15 2
15 4
15 8
15 6
15 7
15 14
15 3
15 13
15 10
16 2
16 13
16 11
16 4
16 9
16 10
16 8
16 5
17 10
17 13
17 3
17 9
17 15
17 12
17 11
18 1
18 15
18 6
18 2
18 7
18 16
18 5
18 12
18 17
18 4
18 13
19 9
19 18
19 5
19 17
19 4
19 2
19 3
19 8
19 11
19 7
19 14
19 10
20 17
20 19
20 12
20 16
20 2
20 15
20 11
20 1
20 14
20 18
20 9
20 8
21 5
21 16
21 15
21 2
21 1
21 14
21 4
21 17
21 7
21 20
21 11
21 13
21 18
22 11
22 7
22 15
22 19
22 4
22 1
22 3
22 21
22 8
22 10
22 18
